(set-info :origin "benchmarks generated by liquid types http://goto.ucsd.edu/~rjhala/liquid/")
(set-logic HORN)
(declare-fun k_15
             (Int
              Int
              Int
              Int
              Int
              Int
              Int
              Int
              Int
              (Array Int Int)
              (Array Int Int)
              (Array Int Int))
             Bool)
(declare-fun k_13
             (Int
              Int
              Int
              Int
              Int
              Int
              Int
              (Array Int Int)
              (Array Int Int)
              (Array Int Int))
             Bool)
(declare-fun k_16
             (Int
              Int
              Int
              Int
              Int
              Int
              Int
              Int
              Int
              Int
              Int
              (Array Int Int)
              (Array Int Int)
              (Array Int Int))
             Bool)
(assert (forall ((VV Int)
         (j_main Int)
         (i_main__SSA__phi_3 Int)
         (__cil_tmp6_main Int)
         (j_main__SSA__blk_10_1 Int)
         (__cil_tmp7_main Int)
         (j_main__SSA__blk_20_1 Int)
         (__cil_tmp8_main Int)
         (str_main Int)
         (EWRITE Int)
         (EREAD Int)
         (j_main__SSA__phi_13 Int)
         (mem_5_main Int)
         (str_main__SSA__blk_0_1 Int)
         (i_main Int)
         (i_main__SSA__blk_0_1 Int)
         (BLOCK_BEGIN (Array Int Int))
         (BLOCK_END (Array Int Int))
         (UNCHECKED (Array Int Int)))
  (let ((a!1 (and (= str_main__SSA__blk_0_1 str_main__SSA__blk_0_1)
                  (= str_main str_main)
                  (= j_main__SSA__blk_20_1 j_main__SSA__blk_20_1)
                  (= j_main__SSA__blk_10_1 j_main__SSA__blk_10_1)
                  (= j_main j_main)
                  (= i_main__SSA__phi_3 i_main__SSA__phi_3)
                  (= i_main__SSA__blk_0_1 i_main__SSA__blk_0_1)
                  (= i_main i_main)
                  (= VV VV)
                  (= EWRITE EWRITE)
                  (= EREAD EREAD)
                  (= VV j_main__SSA__blk_20_1)
                  (not (= __cil_tmp8_main 0))
                  (not (not (= __cil_tmp7_main 0)))
                  (= str_main__SSA__blk_0_1 __cil_tmp6_main)
                  (<= str_main__SSA__blk_0_1 mem_5_main)
                  (= mem_5_main (+ str_main__SSA__blk_0_1 j_main__SSA__phi_13))
                  (= (select UNCHECKED mem_5_main)
                     (select UNCHECKED str_main__SSA__blk_0_1))
                  (= (select BLOCK_BEGIN mem_5_main)
                     (select BLOCK_BEGIN str_main__SSA__blk_0_1))
                  (= (select BLOCK_END mem_5_main)
                     (select BLOCK_END str_main__SSA__blk_0_1))
                  (= j_main__SSA__blk_20_1 (+ j_main__SSA__phi_13 1))
                  (= j_main__SSA__blk_10_1 0)
                  (= i_main__SSA__blk_0_1 0)
                  (= __cil_tmp7_main (ite (< i_main__SSA__phi_3 8) 1 0))
                  (= (select BLOCK_END __cil_tmp6_main)
                     (+ (select BLOCK_BEGIN __cil_tmp6_main) 9))
                  (= (select BLOCK_BEGIN __cil_tmp6_main) __cil_tmp6_main)
                  (> __cil_tmp6_main 0)
                  (k_16 EREAD
                        EWRITE
                        j_main__SSA__phi_13
                        i_main
                        i_main__SSA__blk_0_1
                        i_main__SSA__phi_3
                        j_main
                        j_main__SSA__blk_10_1
                        j_main__SSA__phi_13
                        str_main
                        str_main__SSA__blk_0_1
                        BLOCK_BEGIN
                        BLOCK_END
                        UNCHECKED)
                  (k_15 EREAD
                        EWRITE
                        i_main__SSA__phi_3
                        i_main
                        i_main__SSA__blk_0_1
                        i_main__SSA__phi_3
                        j_main
                        str_main
                        str_main__SSA__blk_0_1
                        BLOCK_BEGIN
                        BLOCK_END
                        UNCHECKED)
                  (k_13 EREAD
                        EWRITE
                        __cil_tmp8_main
                        mem_5_main
                        i_main
                        j_main
                        str_main
                        BLOCK_BEGIN
                        BLOCK_END
                        UNCHECKED)
                  true)))
    (=> a!1
        (k_16 EREAD
              EWRITE
              VV
              i_main
              i_main__SSA__blk_0_1
              i_main__SSA__phi_3
              j_main
              j_main__SSA__blk_10_1
              j_main__SSA__blk_20_1
              str_main
              str_main__SSA__blk_0_1
              BLOCK_BEGIN
              BLOCK_END
              UNCHECKED)))))
(assert (forall ((VV Int)
         (j_main Int)
         (i_main__SSA__phi_3 Int)
         (EREAD Int)
         (__cil_tmp6_main Int)
         (j_main__SSA__blk_10_1 Int)
         (__cil_tmp7_main Int)
         (str_main Int)
         (EWRITE Int)
         (j_main__SSA__blk_10_1_smt_14_0 Int)
         (str_main__SSA__blk_0_1 Int)
         (i_main Int)
         (i_main__SSA__blk_0_1 Int)
         (BLOCK_BEGIN (Array Int Int))
         (BLOCK_END (Array Int Int))
         (UNCHECKED (Array Int Int)))
  (let ((a!1 (and (= str_main__SSA__blk_0_1 str_main__SSA__blk_0_1)
                  (= str_main str_main)
                  (= j_main__SSA__blk_10_1 j_main__SSA__blk_10_1_smt_14_0)
                  (= j_main__SSA__blk_10_1 j_main__SSA__blk_10_1)
                  (= j_main j_main)
                  (= i_main__SSA__phi_3 i_main__SSA__phi_3)
                  (= i_main__SSA__blk_0_1 i_main__SSA__blk_0_1)
                  (= i_main i_main)
                  (= VV VV)
                  (= EWRITE EWRITE)
                  (= EREAD EREAD)
                  (= VV j_main__SSA__blk_10_1)
                  (not (not (= __cil_tmp7_main 0)))
                  (= str_main__SSA__blk_0_1 __cil_tmp6_main)
                  (= j_main__SSA__blk_10_1 0)
                  (= i_main__SSA__blk_0_1 0)
                  (= __cil_tmp7_main (ite (< i_main__SSA__phi_3 8) 1 0))
                  (= (select BLOCK_END __cil_tmp6_main)
                     (+ (select BLOCK_BEGIN __cil_tmp6_main) 9))
                  (= (select BLOCK_BEGIN __cil_tmp6_main) __cil_tmp6_main)
                  (> __cil_tmp6_main 0)
                  (k_15 EREAD
                        EWRITE
                        i_main__SSA__phi_3
                        i_main
                        i_main__SSA__blk_0_1
                        i_main__SSA__phi_3
                        j_main
                        str_main
                        str_main__SSA__blk_0_1
                        BLOCK_BEGIN
                        BLOCK_END
                        UNCHECKED)
                  true)))
    (=> a!1
        (k_16 EREAD
              EWRITE
              VV
              i_main
              i_main__SSA__blk_0_1
              i_main__SSA__phi_3
              j_main
              j_main__SSA__blk_10_1
              j_main__SSA__blk_10_1_smt_14_0
              str_main
              str_main__SSA__blk_0_1
              BLOCK_BEGIN
              BLOCK_END
              UNCHECKED)))))
(assert (forall ((VV Int)
         (j_main Int)
         (EREAD Int)
         (mem_4_main Int)
         (__cil_tmp6_main Int)
         (__cil_tmp7_main Int)
         (str_main Int)
         (EWRITE Int)
         (i_main__SSA__blk_8_1 Int)
         (str_main__SSA__blk_0_1 Int)
         (i_main__SSA__phi_3 Int)
         (i_main Int)
         (i_main__SSA__blk_0_1 Int)
         (BLOCK_BEGIN (Array Int Int))
         (BLOCK_END (Array Int Int))
         (UNCHECKED (Array Int Int)))
  (let ((a!1 (and (= str_main__SSA__blk_0_1 str_main__SSA__blk_0_1)
                  (= str_main str_main)
                  (= j_main j_main)
                  (= i_main__SSA__blk_8_1 i_main__SSA__blk_8_1)
                  (= i_main__SSA__blk_0_1 i_main__SSA__blk_0_1)
                  (= i_main i_main)
                  (= VV VV)
                  (= EWRITE EWRITE)
                  (= EREAD EREAD)
                  (= VV i_main__SSA__blk_8_1)
                  (not (= __cil_tmp7_main 0))
                  (= str_main__SSA__blk_0_1 __cil_tmp6_main)
                  (<= str_main__SSA__blk_0_1 mem_4_main)
                  (= mem_4_main (+ str_main__SSA__blk_0_1 i_main__SSA__phi_3))
                  (= (select UNCHECKED mem_4_main)
                     (select UNCHECKED str_main__SSA__blk_0_1))
                  (= (select BLOCK_BEGIN mem_4_main)
                     (select BLOCK_BEGIN str_main__SSA__blk_0_1))
                  (= (select BLOCK_END mem_4_main)
                     (select BLOCK_END str_main__SSA__blk_0_1))
                  (= i_main__SSA__blk_8_1 (+ i_main__SSA__phi_3 1))
                  (= i_main__SSA__blk_0_1 0)
                  (= __cil_tmp7_main (ite (< i_main__SSA__phi_3 8) 1 0))
                  (= (select BLOCK_END __cil_tmp6_main)
                     (+ (select BLOCK_BEGIN __cil_tmp6_main) 9))
                  (= (select BLOCK_BEGIN __cil_tmp6_main) __cil_tmp6_main)
                  (> __cil_tmp6_main 0)
                  (k_15 EREAD
                        EWRITE
                        i_main__SSA__phi_3
                        i_main
                        i_main__SSA__blk_0_1
                        i_main__SSA__phi_3
                        j_main
                        str_main
                        str_main__SSA__blk_0_1
                        BLOCK_BEGIN
                        BLOCK_END
                        UNCHECKED)
                  true)))
    (=> a!1
        (k_15 EREAD
              EWRITE
              VV
              i_main
              i_main__SSA__blk_0_1
              i_main__SSA__blk_8_1
              j_main
              str_main
              str_main__SSA__blk_0_1
              BLOCK_BEGIN
              BLOCK_END
              UNCHECKED)))))
(assert (forall ((VV Int)
         (j_main Int)
         (EREAD Int)
         (mem_4_main Int)
         (__cil_tmp6_main Int)
         (__cil_tmp7_main Int)
         (str_main Int)
         (i_main Int)
         (i_main__SSA__blk_0_1 Int)
         (i_main__SSA__blk_8_1 Int)
         (str_main__SSA__blk_0_1 Int)
         (i_main__SSA__phi_3 Int)
         (EWRITE Int)
         (VVADDR Int)
         (BLOCK_BEGIN (Array Int Int))
         (BLOCK_END (Array Int Int))
         (UNCHECKED (Array Int Int)))
  (let ((a!1 (k_13 EREAD
                   EWRITE
                   VV
                   VVADDR
                   i_main
                   j_main
                   str_main
                   BLOCK_BEGIN
                   BLOCK_END
                   UNCHECKED)))
  (let ((a!2 (and (= str_main str_main)
                  (= j_main j_main)
                  (= i_main i_main)
                  (= VVADDR VVADDR)
                  (= VV VV)
                  (= EWRITE EWRITE)
                  (= EREAD EREAD)
                  a!1
                  (not (= __cil_tmp7_main 0))
                  (= str_main__SSA__blk_0_1 __cil_tmp6_main)
                  (<= str_main__SSA__blk_0_1 mem_4_main)
                  (= mem_4_main (+ str_main__SSA__blk_0_1 i_main__SSA__phi_3))
                  (= (select UNCHECKED mem_4_main)
                     (select UNCHECKED str_main__SSA__blk_0_1))
                  (= (select BLOCK_BEGIN mem_4_main)
                     (select BLOCK_BEGIN str_main__SSA__blk_0_1))
                  (= (select BLOCK_END mem_4_main)
                     (select BLOCK_END str_main__SSA__blk_0_1))
                  (= i_main__SSA__blk_8_1 (+ i_main__SSA__phi_3 1))
                  (= i_main__SSA__blk_0_1 0)
                  (= __cil_tmp7_main (ite (< i_main__SSA__phi_3 8) 1 0))
                  (= (select BLOCK_END __cil_tmp6_main)
                     (+ (select BLOCK_BEGIN __cil_tmp6_main) 9))
                  (= (select BLOCK_BEGIN __cil_tmp6_main) __cil_tmp6_main)
                  (> __cil_tmp6_main 0)
                  (k_15 EREAD
                        EWRITE
                        i_main__SSA__phi_3
                        i_main
                        i_main__SSA__blk_0_1
                        i_main__SSA__phi_3
                        j_main
                        str_main
                        str_main__SSA__blk_0_1
                        BLOCK_BEGIN
                        BLOCK_END
                        UNCHECKED)
                  true)))
    (=> a!2 a!1)))))
(assert (forall ((VV Int)
         (j_main Int)
         (EREAD Int)
         (i_main__SSA__blk_0_1_smt_11_1 Int)
         (__cil_tmp6_main Int)
         (str_main Int)
         (EWRITE Int)
         (str_main__SSA__blk_0_1 Int)
         (i_main Int)
         (i_main__SSA__blk_0_1 Int)
         (BLOCK_BEGIN (Array Int Int))
         (BLOCK_END (Array Int Int))
         (UNCHECKED (Array Int Int)))
  (let ((a!1 (and (= str_main__SSA__blk_0_1 str_main__SSA__blk_0_1)
                  (= str_main str_main)
                  (= j_main j_main)
                  (= i_main__SSA__blk_0_1 i_main__SSA__blk_0_1_smt_11_1)
                  (= i_main__SSA__blk_0_1 i_main__SSA__blk_0_1)
                  (= i_main i_main)
                  (= VV VV)
                  (= EWRITE EWRITE)
                  (= EREAD EREAD)
                  (= VV i_main__SSA__blk_0_1)
                  (= str_main__SSA__blk_0_1 __cil_tmp6_main)
                  (= i_main__SSA__blk_0_1 0)
                  (= (select BLOCK_END __cil_tmp6_main)
                     (+ (select BLOCK_BEGIN __cil_tmp6_main) 9))
                  (= (select BLOCK_BEGIN __cil_tmp6_main) __cil_tmp6_main)
                  (> __cil_tmp6_main 0)
                  true)))
    (=> a!1
        (k_15 EREAD
              EWRITE
              VV
              i_main
              i_main__SSA__blk_0_1
              i_main__SSA__blk_0_1_smt_11_1
              j_main
              str_main
              str_main__SSA__blk_0_1
              BLOCK_BEGIN
              BLOCK_END
              UNCHECKED)))))
(assert (forall ((__cil_tmp6_main Int)
         (VV Int)
         (EREAD Int)
         (i_main__SSA__phi_3 Int)
         (j_main Int)
         (j_main__SSA__blk_10_1 Int)
         (__cil_tmp7_main Int)
         (str_main Int)
         (EWRITE Int)
         (j_main__SSA__phi_13 Int)
         (mem_5_main Int)
         (str_main__SSA__blk_0_1 Int)
         (i_main Int)
         (i_main__SSA__blk_0_1 Int)
         (BLOCK_BEGIN (Array Int Int))
         (BLOCK_END (Array Int Int))
         (UNCHECKED (Array Int Int)))
  (let ((a!1 (or (= (select UNCHECKED VV) 1)
                 (and (<= (select BLOCK_BEGIN VV) VV)
                      (< VV (select BLOCK_END VV))
                      true)
                 false)))
  (let ((a!2 (and (not a!1)
                  (k_15 EREAD
                        EWRITE
                        i_main__SSA__phi_3
                        i_main
                        i_main__SSA__blk_0_1
                        i_main__SSA__phi_3
                        j_main
                        str_main
                        str_main__SSA__blk_0_1
                        BLOCK_BEGIN
                        BLOCK_END
                        UNCHECKED)
                  (k_16 EREAD
                        EWRITE
                        j_main__SSA__phi_13
                        i_main
                        i_main__SSA__blk_0_1
                        i_main__SSA__phi_3
                        j_main
                        j_main__SSA__blk_10_1
                        j_main__SSA__phi_13
                        str_main
                        str_main__SSA__blk_0_1
                        BLOCK_BEGIN
                        BLOCK_END
                        UNCHECKED)
                  (> __cil_tmp6_main 0)
                  (= (select BLOCK_BEGIN __cil_tmp6_main) __cil_tmp6_main)
                  (= (select BLOCK_END __cil_tmp6_main)
                     (+ (select BLOCK_BEGIN __cil_tmp6_main) 9))
                  (= __cil_tmp7_main (ite (< i_main__SSA__phi_3 8) 1 0))
                  (= i_main__SSA__blk_0_1 0)
                  (= j_main__SSA__blk_10_1 0)
                  (= (select BLOCK_END mem_5_main)
                     (select BLOCK_END str_main__SSA__blk_0_1))
                  (= (select BLOCK_BEGIN mem_5_main)
                     (select BLOCK_BEGIN str_main__SSA__blk_0_1))
                  (= (select UNCHECKED mem_5_main)
                     (select UNCHECKED str_main__SSA__blk_0_1))
                  (= mem_5_main (+ str_main__SSA__blk_0_1 j_main__SSA__phi_13))
                  (<= str_main__SSA__blk_0_1 mem_5_main)
                  (= str_main__SSA__blk_0_1 __cil_tmp6_main)
                  (not (not (= __cil_tmp7_main 0)))
                  (< VV (+ mem_5_main 1))
                  (<= mem_5_main VV)
                  (= (select UNCHECKED VV) (select UNCHECKED mem_5_main))
                  (= (select BLOCK_END VV) (select BLOCK_END mem_5_main))
                  (= (select BLOCK_BEGIN VV) (select BLOCK_BEGIN mem_5_main))
                  true)))
    (=> a!2 false)))))
(assert (forall ((__cil_tmp6_main Int)
         (EREAD Int)
         (i_main__SSA__phi_3 Int)
         (j_main Int)
         (j_main__SSA__blk_10_1 Int)
         (__cil_tmp7_main Int)
         (str_main Int)
         (i_main Int)
         (j_main__SSA__phi_13 Int)
         (str_main__SSA__blk_0_1 Int)
         (EWRITE Int)
         (i_main__SSA__blk_0_1 Int)
         (BLOCK_BEGIN (Array Int Int))
         (BLOCK_END (Array Int Int))
         (UNCHECKED (Array Int Int)))
  (let ((a!1 (and (not (<= 0 j_main__SSA__phi_13))
                  (k_15 EREAD
                        EWRITE
                        i_main__SSA__phi_3
                        i_main
                        i_main__SSA__blk_0_1
                        i_main__SSA__phi_3
                        j_main
                        str_main
                        str_main__SSA__blk_0_1
                        BLOCK_BEGIN
                        BLOCK_END
                        UNCHECKED)
                  (k_16 EREAD
                        EWRITE
                        j_main__SSA__phi_13
                        i_main
                        i_main__SSA__blk_0_1
                        i_main__SSA__phi_3
                        j_main
                        j_main__SSA__blk_10_1
                        j_main__SSA__phi_13
                        str_main
                        str_main__SSA__blk_0_1
                        BLOCK_BEGIN
                        BLOCK_END
                        UNCHECKED)
                  (> __cil_tmp6_main 0)
                  (= (select BLOCK_BEGIN __cil_tmp6_main) __cil_tmp6_main)
                  (= (select BLOCK_END __cil_tmp6_main)
                     (+ (select BLOCK_BEGIN __cil_tmp6_main) 9))
                  (= __cil_tmp7_main (ite (< i_main__SSA__phi_3 8) 1 0))
                  (= i_main__SSA__blk_0_1 0)
                  (= j_main__SSA__blk_10_1 0)
                  (= str_main__SSA__blk_0_1 __cil_tmp6_main)
                  (not (not (= __cil_tmp7_main 0)))
                  true)))
    (=> a!1 false))))
(assert (forall ((j_main Int)
         (EREAD Int)
         (__cil_tmp6_main Int)
         (__cil_tmp7_main Int)
         (str_main Int)
         (EWRITE Int)
         (str_main__SSA__blk_0_1 Int)
         (i_main__SSA__phi_3 Int)
         (i_main Int)
         (i_main__SSA__blk_0_1 Int)
         (BLOCK_BEGIN (Array Int Int))
         (BLOCK_END (Array Int Int))
         (UNCHECKED (Array Int Int)))
  (let ((a!1 (and (not (<= 0 i_main__SSA__phi_3))
                  (k_15 EREAD
                        EWRITE
                        i_main__SSA__phi_3
                        i_main
                        i_main__SSA__blk_0_1
                        i_main__SSA__phi_3
                        j_main
                        str_main
                        str_main__SSA__blk_0_1
                        BLOCK_BEGIN
                        BLOCK_END
                        UNCHECKED)
                  (> __cil_tmp6_main 0)
                  (= (select BLOCK_BEGIN __cil_tmp6_main) __cil_tmp6_main)
                  (= (select BLOCK_END __cil_tmp6_main)
                     (+ (select BLOCK_BEGIN __cil_tmp6_main) 9))
                  (= __cil_tmp7_main (ite (< i_main__SSA__phi_3 8) 1 0))
                  (= i_main__SSA__blk_0_1 0)
                  (= str_main__SSA__blk_0_1 __cil_tmp6_main)
                  (not (= __cil_tmp7_main 0))
                  true)))
    (=> a!1 false))))
(assert (forall ((VV Int)
         (j_main Int)
         (EREAD Int)
         (__cil_tmp6_main Int)
         (__cil_tmp7_main Int)
         (str_main Int)
         (i_main Int)
         (i_main__SSA__blk_0_1 Int)
         (str_main__SSA__blk_0_1 Int)
         (i_main__SSA__phi_3 Int)
         (EWRITE Int)
         (mem_4_main Int)
         (BLOCK_BEGIN (Array Int Int))
         (BLOCK_END (Array Int Int))
         (UNCHECKED (Array Int Int)))
  (let ((a!1 (and (= str_main str_main)
                  (= mem_4_main mem_4_main)
                  (= j_main j_main)
                  (= i_main i_main)
                  (= VV VV)
                  (= EWRITE EWRITE)
                  (= EREAD EREAD)
                  (= VV 97)
                  (not (= __cil_tmp7_main 0))
                  (= str_main__SSA__blk_0_1 __cil_tmp6_main)
                  (<= str_main__SSA__blk_0_1 mem_4_main)
                  (= mem_4_main (+ str_main__SSA__blk_0_1 i_main__SSA__phi_3))
                  (= (select UNCHECKED mem_4_main)
                     (select UNCHECKED str_main__SSA__blk_0_1))
                  (= (select BLOCK_BEGIN mem_4_main)
                     (select BLOCK_BEGIN str_main__SSA__blk_0_1))
                  (= (select BLOCK_END mem_4_main)
                     (select BLOCK_END str_main__SSA__blk_0_1))
                  (= i_main__SSA__blk_0_1 0)
                  (= __cil_tmp7_main (ite (< i_main__SSA__phi_3 8) 1 0))
                  (= (select BLOCK_END __cil_tmp6_main)
                     (+ (select BLOCK_BEGIN __cil_tmp6_main) 9))
                  (= (select BLOCK_BEGIN __cil_tmp6_main) __cil_tmp6_main)
                  (> __cil_tmp6_main 0)
                  (k_15 EREAD
                        EWRITE
                        i_main__SSA__phi_3
                        i_main
                        i_main__SSA__blk_0_1
                        i_main__SSA__phi_3
                        j_main
                        str_main
                        str_main__SSA__blk_0_1
                        BLOCK_BEGIN
                        BLOCK_END
                        UNCHECKED)
                  true)))
    (=> a!1
        (k_13 EREAD
              EWRITE
              VV
              mem_4_main
              i_main
              j_main
              str_main
              BLOCK_BEGIN
              BLOCK_END
              UNCHECKED)))))
(assert (forall ((__cil_tmp6_main Int)
         (VV Int)
         (EREAD Int)
         (i_main__SSA__phi_3 Int)
         (mem_4_main Int)
         (j_main Int)
         (__cil_tmp7_main Int)
         (str_main Int)
         (EWRITE Int)
         (str_main__SSA__blk_0_1 Int)
         (i_main Int)
         (i_main__SSA__blk_0_1 Int)
         (BLOCK_BEGIN (Array Int Int))
         (BLOCK_END (Array Int Int))
         (UNCHECKED (Array Int Int)))
  (let ((a!1 (or (= (select UNCHECKED VV) 1)
                 (and (<= (select BLOCK_BEGIN VV) VV)
                      (< VV (select BLOCK_END VV))
                      true)
                 false)))
  (let ((a!2 (and (not a!1)
                  (k_15 EREAD
                        EWRITE
                        i_main__SSA__phi_3
                        i_main
                        i_main__SSA__blk_0_1
                        i_main__SSA__phi_3
                        j_main
                        str_main
                        str_main__SSA__blk_0_1
                        BLOCK_BEGIN
                        BLOCK_END
                        UNCHECKED)
                  (> __cil_tmp6_main 0)
                  (= (select BLOCK_BEGIN __cil_tmp6_main) __cil_tmp6_main)
                  (= (select BLOCK_END __cil_tmp6_main)
                     (+ (select BLOCK_BEGIN __cil_tmp6_main) 9))
                  (= __cil_tmp7_main (ite (< i_main__SSA__phi_3 8) 1 0))
                  (= i_main__SSA__blk_0_1 0)
                  (= (select BLOCK_END mem_4_main)
                     (select BLOCK_END str_main__SSA__blk_0_1))
                  (= (select BLOCK_BEGIN mem_4_main)
                     (select BLOCK_BEGIN str_main__SSA__blk_0_1))
                  (= (select UNCHECKED mem_4_main)
                     (select UNCHECKED str_main__SSA__blk_0_1))
                  (= mem_4_main (+ str_main__SSA__blk_0_1 i_main__SSA__phi_3))
                  (<= str_main__SSA__blk_0_1 mem_4_main)
                  (= str_main__SSA__blk_0_1 __cil_tmp6_main)
                  (not (= __cil_tmp7_main 0))
                  (< VV (+ mem_4_main 1))
                  (<= mem_4_main VV)
                  (= (select UNCHECKED VV) (select UNCHECKED mem_4_main))
                  (= (select BLOCK_END VV) (select BLOCK_END mem_4_main))
                  (= (select BLOCK_BEGIN VV) (select BLOCK_BEGIN mem_4_main))
                  true)))
    (=> a!2 false)))))
(assert (forall ((VV Int)
         (j_main Int)
         (EREAD Int)
         (__cil_tmp6_main Int)
         (str_main Int)
         (i_main Int)
         (i_main__SSA__blk_0_1 Int)
         (str_main__SSA__blk_0_1 Int)
         (EWRITE Int)
         (VVADDR Int)
         (BLOCK_BEGIN (Array Int Int))
         (BLOCK_END (Array Int Int))
         (UNCHECKED (Array Int Int)))
  (let ((a!1 (and (= str_main str_main)
                  (= j_main j_main)
                  (= i_main i_main)
                  (= VVADDR VVADDR)
                  (= VV VV)
                  (= EWRITE EWRITE)
                  (= EREAD EREAD)
                  false
                  (= str_main__SSA__blk_0_1 __cil_tmp6_main)
                  (= i_main__SSA__blk_0_1 0)
                  (= (select BLOCK_END __cil_tmp6_main)
                     (+ (select BLOCK_BEGIN __cil_tmp6_main) 9))
                  (= (select BLOCK_BEGIN __cil_tmp6_main) __cil_tmp6_main)
                  (> __cil_tmp6_main 0)
                  true)))
    (=> a!1
        (k_13 EREAD
              EWRITE
              VV
              VVADDR
              i_main
              j_main
              str_main
              BLOCK_BEGIN
              BLOCK_END
              UNCHECKED)))))
(assert (forall ((VV Int)
         (j_main Int)
         (EREAD Int)
         (str_main Int)
         (i_main Int)
         (EWRITE Int)
         (VVADDR Int)
         (BLOCK_BEGIN (Array Int Int))
         (BLOCK_END (Array Int Int))
         (UNCHECKED (Array Int Int)))
  (let ((a!1 (=> (= VVADDR (- (select BLOCK_END VVADDR) 1)) (= VV 0))))
    (=> (and (= str_main str_main)
             (= j_main j_main)
             (= i_main i_main)
             (= VVADDR VVADDR)
             (= VV VV)
             (= EWRITE EWRITE)
             (= EREAD EREAD)
             a!1
             true)
        (k_13 EREAD
              EWRITE
              VV
              VVADDR
              i_main
              j_main
              str_main
              BLOCK_BEGIN
              BLOCK_END
              UNCHECKED)))))

(check-sat)
